notes/week7-examples/Linear-Optimization-AMPL/IMM-9-FS2014-power-genenator.txt
for {1..1} {
solve;
display x;
}

